db/data/20892526527454272322400028220179667561.z3.out
-------------------
2500.224275535
